493.39,76.31,87.16
546.4,68.91,78.7
505.21,74.53,85.12
502.26,74.96,85.62
520.3,72.37,82.65
554.49,67.9,77.55
525.39,71.66,81.85
506.84,74.29,84.84
493.88,76.24,87.07
503.32,74.81,85.44
508.34,74.07,84.59
544.6,69.14,78.96
521.42,72.21,82.47
552.72,68.12,77.8
491.78,76.56,87.44
486.72,77.36,88.35
478.73,78.65,89.82
520.69,72.31,82.59
544.1,69.2,79.03
559.37,67.31,76.88
